N = 13;
H = 5;
T = 2;

avail = array3d(1..N, 1..H, 1..T, [2, 8, 1, 2, 6, 5, 7, 1, 10, 9, 2, 9, 7, 5, 9, 7, 5, 8, 2, 6, 9, 8, 5, 10, 6, 3, 2, 10, 3, 7, 9, 6, 5, 4, 0, 6, 8, 10, 4, 7, 10, 2, 2, 5, 1, 5, 10, 6, 5, 9, 4, 2, 3, 7, 2, 8, 0, 9, 6, 4, 3, 10, 4, 8, 4, 9, 2, 8, 2, 9, 7, 3, 1, 8, 7, 8, 4, 6, 2, 8, 8, 3, 2, 8, 8, 5, 9, 8, 7, 8, 3, 0, 10, 4, 3, 9, 0, 6, 9, 7, 2, 3, 1, 4, 2, 10, 5, 9, 5, 0, 10, 7, 5, 4, 3, 8, 5, 1, 0, 8, 2, 9, 9, 3, 8, 9, 9, 5, 8, 2]);

r = array2d(1..H, 1..T, [5, 4, 4, 2, 6, 3, 4, 1, 2, 7]);
